c Random 5-CNF over 20 variables and 80 clauses
c Generated with `cnfgen`
c (C) 2012-2016 Massimo Lauria <lauria.massimo@gmail.com>
c https://massimolauria.github.io/cnfgen
c
c COMMAND LINE: cnfgen --output tmp-5-20-80.dimacs --output-format dimacs randkcnf 5 20 80
c
c sdimacs generated by gen-sdimacs
c
p cnf 20 80
r 0.5 1 2 3 4 5 6 7 8 9 10 0
e  11 12 13 14 15 16 17 18 19 20 0
7 8 9 -16 -19 0
-7 -10 11 17 20 0
-3 10 12 -16 -17 0
5 8 -9 -14 -16 0
3 -6 7 16 -18 0
-3 -5 12 -18 -20 0
-3 4 13 14 18 0
1 -2 -8 10 14 0
4 6 -13 19 -20 0
-2 -3 -5 17 18 0
8 13 -15 17 19 0
-1 2 -4 8 -10 0
8 12 -13 14 15 0
-4 5 -7 -14 -19 0
1 2 -3 -5 19 0
2 7 10 12 14 0
2 -3 12 -13 -17 0
-9 -10 -11 -14 -17 0
-1 4 -9 10 18 0
1 -8 -9 12 14 0
-1 2 3 -5 -8 0
3 6 -7 -13 16 0
-2 5 -7 16 -17 0
8 -12 -17 18 19 0
-2 -4 -11 -16 -20 0
-3 -13 14 -15 16 0
1 -7 -10 15 18 0
-4 -6 -8 -9 19 0
2 4 -14 15 -20 0
4 6 -12 13 14 0
-1 -2 5 6 -17 0
-3 -4 -11 12 -20 0
7 8 10 11 -19 0
1 -3 -5 -12 -19 0
-1 6 9 -19 -20 0
9 10 15 -17 -19 0
2 -5 10 15 17 0
6 -10 17 18 20 0
3 -4 -10 13 -18 0
-3 -7 -8 -14 -18 0
3 4 8 -10 11 0
-14 15 -18 -19 20 0
2 6 -7 -15 -16 0
4 8 -14 16 18 0
5 8 -10 14 -19 0
-1 8 -10 -11 -15 0
1 13 15 -16 18 0
10 -11 -13 16 20 0
2 -6 -10 16 17 0
-4 9 -10 12 20 0
-6 -8 12 15 -17 0
6 7 10 15 18 0
-3 4 9 12 -20 0
6 -7 10 -13 17 0
12 -13 -15 18 20 0
-1 -2 -7 13 -14 0
2 -6 -10 12 -13 0
2 -3 -5 -6 -9 0
-9 10 16 -17 18 0
1 5 -8 -11 12 0
-5 7 11 16 -17 0
-5 -7 8 9 -18 0
-1 -2 -3 -11 19 0
-5 10 14 -16 -17 0
3 6 9 10 -16 0
-2 10 11 18 -19 0
-2 6 10 12 13 0
-1 3 -10 14 19 0
-4 -8 -10 19 -20 0
2 -7 -10 13 -14 0
3 6 16 17 -19 0
7 12 16 17 -20 0
3 -10 -15 16 -17 0
-1 -2 5 7 8 0
1 5 7 -13 -16 0
-6 -7 -8 -14 -15 0
-1 3 -5 -10 -18 0
3 8 -12 -13 19 0
-8 -11 13 -15 -19 0
1 3 7 -10 16 0
